NAME: tsp45_7
COMMENT: 45-tsp problem (Padberg/Rinaldi)
TYPE: TSP
DIMENSION: 45
EDGE_WEIGHT_TYPE : EUC_2D
NODE_COORD_SECTION
1 25 11
2 23 23
3 35 32
4 3 13
5 38 31
6 14 23
7 13 24
8 36 29
9 30 37
10 27 12
11 27 2
12 6 2
13 22 14
14 15 26
15 7 24
16 9 39
17 37 38
18 6 6
19 5 24
20 2 4
21 29 39
22 40 34
23 35 26
24 13 39
25 28 17
26 18 12
27 12 15
28 11 25
29 13 25
30 13 24
31 1 13
32 10 14
33 22 5
34 10 35
35 20 20
36 35 25
37 4 5
38 30 14
39 4 17
40 36 10
41 2 34
42 5 22
43 24 13
44 19 31
45 17 31
